(set-logic QF_S)
(declare-fun var0 () String)
(assert (RegexIn var0 (RegexConcat (RegexUnion (RegexStar (Str2Reg "0")) (RegexStar (Str2Reg "11"))) (RegexConcat (RegexUnion (RegexPlus (Str2Reg "222")) (RegexPlus (Str2Reg "33"))) (RegexConcat (RegexPlus (RegexStar (Str2Reg "44"))) (RegexConcat (RegexUnion (RegexStar (Str2Reg "555")) (RegexStar (Str2Reg "666"))) (RegexConcat (RegexPlus (RegexUnion (Str2Reg "777") (Str2Reg "888"))) (RegexConcat (RegexStar (RegexPlus (Str2Reg "999"))) (RegexConcat (RegexPlus (RegexPlus (Str2Reg "a"))) (RegexConcat (RegexUnion (RegexPlus (Str2Reg "bb")) (RegexPlus (Str2Reg "ccc"))) (RegexConcat (RegexUnion (RegexUnion (Str2Reg "ddd") (Str2Reg "ee")) (RegexUnion (Str2Reg "ff") (Str2Reg "g"))) (RegexStar (RegexUnion (Str2Reg "hh") (Str2Reg "ii"))))))))))))))
(assert (RegexIn var0 (RegexConcat (RegexUnion (RegexPlus (Str2Reg "000")) (RegexPlus (Str2Reg "111"))) (RegexConcat (RegexStar (RegexUnion (Str2Reg "222") (Str2Reg "3"))) (RegexConcat (RegexUnion (RegexUnion (Str2Reg "44") (Str2Reg "55")) (RegexUnion (Str2Reg "666") (Str2Reg "777"))) (RegexConcat (RegexPlus (RegexStar (Str2Reg "888"))) (RegexConcat (RegexStar (RegexStar (Str2Reg "9"))) (RegexConcat (RegexPlus (RegexPlus (Str2Reg "aaa"))) (RegexConcat (RegexPlus (RegexUnion (Str2Reg "b") (Str2Reg "cc"))) (RegexConcat (RegexPlus (RegexPlus (Str2Reg "ddd"))) (RegexConcat (RegexStar (RegexUnion (Str2Reg "eee") (Str2Reg "ff"))) (RegexStar (RegexStar (Str2Reg "g"))))))))))))))
(assert (RegexIn var0 (RegexConcat (RegexStar (RegexPlus (Str2Reg "000"))) (RegexConcat (RegexUnion (RegexPlus (Str2Reg "11")) (RegexPlus (Str2Reg "2"))) (RegexConcat (RegexUnion (RegexPlus (Str2Reg "3")) (RegexPlus (Str2Reg "44"))) (RegexConcat (RegexUnion (RegexUnion (Str2Reg "5") (Str2Reg "666")) (RegexUnion (Str2Reg "777") (Str2Reg "8"))) (RegexConcat (RegexPlus (RegexPlus (Str2Reg "9"))) (RegexConcat (RegexPlus (RegexUnion (Str2Reg "a") (Str2Reg "bb"))) (RegexConcat (RegexUnion (RegexUnion (Str2Reg "c") (Str2Reg "dd")) (RegexUnion (Str2Reg "ee") (Str2Reg "fff"))) (RegexConcat (RegexStar (RegexStar (Str2Reg "g"))) (RegexConcat (RegexPlus (RegexStar (Str2Reg "hhh"))) (RegexStar (RegexPlus (Str2Reg "iii"))))))))))))))
(assert (RegexIn var0 (RegexConcat (RegexStar (RegexStar (Str2Reg "00"))) (RegexConcat (RegexPlus (RegexUnion (Str2Reg "1") (Str2Reg "22"))) (RegexConcat (RegexPlus (RegexPlus (Str2Reg "33"))) (RegexConcat (RegexPlus (RegexPlus (Str2Reg "444"))) (RegexConcat (RegexPlus (RegexPlus (Str2Reg "55"))) (RegexConcat (RegexUnion (RegexStar (Str2Reg "666")) (RegexStar (Str2Reg "7"))) (RegexConcat (RegexPlus (RegexUnion (Str2Reg "888") (Str2Reg "9"))) (RegexConcat (RegexUnion (RegexPlus (Str2Reg "a")) (RegexPlus (Str2Reg "bbb"))) (RegexConcat (RegexUnion (RegexStar (Str2Reg "c")) (RegexStar (Str2Reg "dd"))) (RegexStar (RegexStar (Str2Reg "e"))))))))))))))
(assert (RegexIn var0 (RegexConcat (RegexPlus (RegexStar (Str2Reg "00"))) (RegexConcat (RegexPlus (RegexStar (Str2Reg "1"))) (RegexConcat (RegexUnion (RegexStar (Str2Reg "222")) (RegexStar (Str2Reg "333"))) (RegexConcat (RegexUnion (RegexUnion (Str2Reg "4") (Str2Reg "555")) (RegexUnion (Str2Reg "6") (Str2Reg "77"))) (RegexConcat (RegexStar (RegexStar (Str2Reg "8"))) (RegexConcat (RegexStar (RegexStar (Str2Reg "99"))) (RegexConcat (RegexPlus (RegexPlus (Str2Reg "a"))) (RegexConcat (RegexUnion (RegexPlus (Str2Reg "bb")) (RegexPlus (Str2Reg "cc"))) (RegexConcat (RegexStar (RegexUnion (Str2Reg "dd") (Str2Reg "ee"))) (RegexUnion (RegexStar (Str2Reg "f")) (RegexStar (Str2Reg "g"))))))))))))))
(assert (RegexIn var0 (RegexConcat (RegexPlus (RegexPlus (Str2Reg "00"))) (RegexConcat (RegexUnion (RegexStar (Str2Reg "111")) (RegexStar (Str2Reg "22"))) (RegexConcat (RegexUnion (RegexPlus (Str2Reg "333")) (RegexPlus (Str2Reg "44"))) (RegexConcat (RegexUnion (RegexUnion (Str2Reg "55") (Str2Reg "666")) (RegexUnion (Str2Reg "7") (Str2Reg "888"))) (RegexConcat (RegexPlus (RegexUnion (Str2Reg "99") (Str2Reg "aa"))) (RegexConcat (RegexUnion (RegexPlus (Str2Reg "bb")) (RegexPlus (Str2Reg "c"))) (RegexConcat (RegexStar (RegexPlus (Str2Reg "dd"))) (RegexConcat (RegexStar (RegexUnion (Str2Reg "e") (Str2Reg "f"))) (RegexConcat (RegexStar (RegexUnion (Str2Reg "g") (Str2Reg "hh"))) (RegexPlus (RegexUnion (Str2Reg "iii") (Str2Reg "j"))))))))))))))
(assert (RegexIn var0 (RegexConcat (RegexStar (RegexStar (Str2Reg "00"))) (RegexConcat (RegexPlus (RegexStar (Str2Reg "11"))) (RegexConcat (RegexPlus (RegexUnion (Str2Reg "2") (Str2Reg "33"))) (RegexConcat (RegexPlus (RegexPlus (Str2Reg "4"))) (RegexConcat (RegexPlus (RegexStar (Str2Reg "5"))) (RegexConcat (RegexUnion (RegexPlus (Str2Reg "666")) (RegexPlus (Str2Reg "777"))) (RegexConcat (RegexStar (RegexUnion (Str2Reg "8") (Str2Reg "999"))) (RegexConcat (RegexUnion (RegexPlus (Str2Reg "aa")) (RegexPlus (Str2Reg "bbb"))) (RegexConcat (RegexPlus (RegexPlus (Str2Reg "c"))) (RegexPlus (RegexPlus (Str2Reg "ddd"))))))))))))))
(check-sat)